n = 50 ; 
e = 702; 
E = [| 1, 2, 
| 1, 3, 
| 1, 4, 
| 1, 5, 
| 1, 7, 
| 1, 9, 
| 1, 11, 
| 1, 13, 
| 1, 16, 
| 1, 21, 
| 1, 22, 
| 1, 23, 
| 1, 25, 
| 1, 26, 
| 1, 27, 
| 1, 28, 
| 1, 29, 
| 1, 30, 
| 1, 32, 
| 1, 33, 
| 1, 34, 
| 1, 35, 
| 1, 39, 
| 1, 42, 
| 1, 46, 
| 1, 47, 
| 1, 48, 
| 2, 4, 
| 2, 5, 
| 2, 6, 
| 2, 7, 
| 2, 8, 
| 2, 9, 
| 2, 12, 
| 2, 17, 
| 2, 19, 
| 2, 21, 
| 2, 24, 
| 2, 27, 
| 2, 28, 
| 2, 29, 
| 2, 31, 
| 2, 37, 
| 2, 39, 
| 2, 42, 
| 2, 43, 
| 2, 46, 
| 2, 47, 
| 3, 4, 
| 3, 5, 
| 3, 6, 
| 3, 7, 
| 3, 9, 
| 3, 10, 
| 3, 11, 
| 3, 12, 
| 3, 13, 
| 3, 14, 
| 3, 20, 
| 3, 22, 
| 3, 23, 
| 3, 26, 
| 3, 29, 
| 3, 30, 
| 3, 31, 
| 3, 32, 
| 3, 33, 
| 3, 36, 
| 3, 37, 
| 3, 39, 
| 3, 40, 
| 3, 41, 
| 3, 42, 
| 3, 44, 
| 3, 45, 
| 3, 46, 
| 3, 47, 
| 3, 48, 
| 3, 49, 
| 3, 50, 
| 4, 5, 
| 4, 7, 
| 4, 8, 
| 4, 9, 
| 4, 10, 
| 4, 11, 
| 4, 12, 
| 4, 13, 
| 4, 14, 
| 4, 15, 
| 4, 16, 
| 4, 17, 
| 4, 19, 
| 4, 20, 
| 4, 21, 
| 4, 22, 
| 4, 23, 
| 4, 24, 
| 4, 27, 
| 4, 29, 
| 4, 30, 
| 4, 33, 
| 4, 35, 
| 4, 37, 
| 4, 38, 
| 4, 39, 
| 4, 40, 
| 4, 41, 
| 4, 43, 
| 4, 44, 
| 4, 45, 
| 4, 46, 
| 4, 49, 
| 4, 50, 
| 5, 7, 
| 5, 8, 
| 5, 10, 
| 5, 13, 
| 5, 14, 
| 5, 16, 
| 5, 17, 
| 5, 18, 
| 5, 20, 
| 5, 26, 
| 5, 29, 
| 5, 30, 
| 5, 31, 
| 5, 32, 
| 5, 33, 
| 5, 34, 
| 5, 36, 
| 5, 37, 
| 5, 38, 
| 5, 39, 
| 5, 43, 
| 5, 47, 
| 5, 48, 
| 6, 7, 
| 6, 9, 
| 6, 11, 
| 6, 12, 
| 6, 13, 
| 6, 15, 
| 6, 17, 
| 6, 18, 
| 6, 21, 
| 6, 22, 
| 6, 24, 
| 6, 25, 
| 6, 29, 
| 6, 31, 
| 6, 32, 
| 6, 33, 
| 6, 36, 
| 6, 38, 
| 6, 40, 
| 6, 44, 
| 6, 45, 
| 6, 49, 
| 6, 50, 
| 7, 9, 
| 7, 10, 
| 7, 12, 
| 7, 13, 
| 7, 14, 
| 7, 17, 
| 7, 18, 
| 7, 20, 
| 7, 21, 
| 7, 22, 
| 7, 23, 
| 7, 26, 
| 7, 27, 
| 7, 28, 
| 7, 29, 
| 7, 32, 
| 7, 33, 
| 7, 35, 
| 7, 36, 
| 7, 37, 
| 7, 38, 
| 7, 39, 
| 7, 40, 
| 7, 43, 
| 7, 46, 
| 7, 47, 
| 7, 48, 
| 8, 10, 
| 8, 11, 
| 8, 12, 
| 8, 14, 
| 8, 16, 
| 8, 18, 
| 8, 19, 
| 8, 20, 
| 8, 21, 
| 8, 23, 
| 8, 25, 
| 8, 28, 
| 8, 29, 
| 8, 30, 
| 8, 31, 
| 8, 32, 
| 8, 33, 
| 8, 34, 
| 8, 36, 
| 8, 37, 
| 8, 38, 
| 8, 40, 
| 8, 41, 
| 8, 42, 
| 8, 43, 
| 8, 45, 
| 8, 46, 
| 8, 47, 
| 8, 48, 
| 8, 50, 
| 9, 10, 
| 9, 17, 
| 9, 18, 
| 9, 20, 
| 9, 21, 
| 9, 25, 
| 9, 26, 
| 9, 29, 
| 9, 34, 
| 9, 35, 
| 9, 36, 
| 9, 38, 
| 9, 39, 
| 9, 40, 
| 9, 41, 
| 9, 42, 
| 9, 43, 
| 9, 45, 
| 9, 46, 
| 9, 48, 
| 9, 50, 
| 10, 11, 
| 10, 12, 
| 10, 13, 
| 10, 14, 
| 10, 15, 
| 10, 17, 
| 10, 18, 
| 10, 19, 
| 10, 21, 
| 10, 22, 
| 10, 26, 
| 10, 30, 
| 10, 32, 
| 10, 33, 
| 10, 36, 
| 10, 37, 
| 10, 40, 
| 10, 41, 
| 10, 42, 
| 10, 44, 
| 10, 45, 
| 10, 48, 
| 10, 50, 
| 11, 12, 
| 11, 13, 
| 11, 15, 
| 11, 19, 
| 11, 20, 
| 11, 22, 
| 11, 23, 
| 11, 24, 
| 11, 25, 
| 11, 26, 
| 11, 27, 
| 11, 28, 
| 11, 31, 
| 11, 32, 
| 11, 33, 
| 11, 35, 
| 11, 36, 
| 11, 37, 
| 11, 39, 
| 11, 42, 
| 11, 44, 
| 11, 45, 
| 11, 47, 
| 11, 48, 
| 11, 50, 
| 12, 13, 
| 12, 14, 
| 12, 16, 
| 12, 18, 
| 12, 20, 
| 12, 23, 
| 12, 24, 
| 12, 26, 
| 12, 27, 
| 12, 29, 
| 12, 31, 
| 12, 33, 
| 12, 34, 
| 12, 35, 
| 12, 36, 
| 12, 40, 
| 12, 41, 
| 12, 43, 
| 12, 44, 
| 12, 45, 
| 12, 47, 
| 12, 48, 
| 12, 49, 
| 13, 16, 
| 13, 18, 
| 13, 19, 
| 13, 20, 
| 13, 21, 
| 13, 23, 
| 13, 25, 
| 13, 26, 
| 13, 28, 
| 13, 30, 
| 13, 32, 
| 13, 33, 
| 13, 35, 
| 13, 37, 
| 13, 38, 
| 13, 40, 
| 13, 41, 
| 13, 43, 
| 13, 44, 
| 13, 45, 
| 13, 48, 
| 14, 15, 
| 14, 16, 
| 14, 21, 
| 14, 22, 
| 14, 27, 
| 14, 28, 
| 14, 29, 
| 14, 30, 
| 14, 31, 
| 14, 33, 
| 14, 34, 
| 14, 37, 
| 14, 39, 
| 14, 41, 
| 14, 44, 
| 14, 45, 
| 14, 46, 
| 14, 47, 
| 15, 16, 
| 15, 17, 
| 15, 18, 
| 15, 19, 
| 15, 20, 
| 15, 21, 
| 15, 22, 
| 15, 27, 
| 15, 28, 
| 15, 29, 
| 15, 32, 
| 15, 33, 
| 15, 34, 
| 15, 35, 
| 15, 38, 
| 15, 39, 
| 15, 41, 
| 15, 43, 
| 15, 44, 
| 15, 46, 
| 15, 47, 
| 15, 48, 
| 15, 49, 
| 15, 50, 
| 16, 17, 
| 16, 18, 
| 16, 20, 
| 16, 27, 
| 16, 28, 
| 16, 29, 
| 16, 31, 
| 16, 33, 
| 16, 35, 
| 16, 36, 
| 16, 37, 
| 16, 41, 
| 16, 42, 
| 16, 44, 
| 16, 47, 
| 16, 50, 
| 17, 18, 
| 17, 21, 
| 17, 25, 
| 17, 27, 
| 17, 28, 
| 17, 30, 
| 17, 31, 
| 17, 41, 
| 17, 44, 
| 17, 45, 
| 17, 46, 
| 17, 48, 
| 18, 19, 
| 18, 20, 
| 18, 21, 
| 18, 23, 
| 18, 25, 
| 18, 26, 
| 18, 27, 
| 18, 28, 
| 18, 29, 
| 18, 30, 
| 18, 33, 
| 18, 34, 
| 18, 37, 
| 18, 44, 
| 18, 46, 
| 18, 49, 
| 18, 50, 
| 19, 20, 
| 19, 22, 
| 19, 23, 
| 19, 24, 
| 19, 28, 
| 19, 30, 
| 19, 31, 
| 19, 32, 
| 19, 34, 
| 19, 37, 
| 19, 38, 
| 19, 42, 
| 19, 43, 
| 19, 45, 
| 19, 46, 
| 19, 48, 
| 19, 49, 
| 19, 50, 
| 20, 21, 
| 20, 22, 
| 20, 23, 
| 20, 25, 
| 20, 27, 
| 20, 28, 
| 20, 29, 
| 20, 30, 
| 20, 32, 
| 20, 34, 
| 20, 35, 
| 20, 37, 
| 20, 39, 
| 20, 40, 
| 20, 42, 
| 20, 45, 
| 20, 48, 
| 20, 49, 
| 20, 50, 
| 21, 22, 
| 21, 24, 
| 21, 26, 
| 21, 27, 
| 21, 29, 
| 21, 31, 
| 21, 32, 
| 21, 33, 
| 21, 34, 
| 21, 35, 
| 21, 36, 
| 21, 38, 
| 21, 40, 
| 21, 41, 
| 21, 42, 
| 21, 47, 
| 21, 48, 
| 21, 49, 
| 21, 50, 
| 22, 26, 
| 22, 27, 
| 22, 28, 
| 22, 31, 
| 22, 33, 
| 22, 36, 
| 22, 39, 
| 22, 41, 
| 22, 45, 
| 22, 46, 
| 22, 47, 
| 22, 48, 
| 22, 50, 
| 23, 24, 
| 23, 25, 
| 23, 26, 
| 23, 27, 
| 23, 29, 
| 23, 30, 
| 23, 31, 
| 23, 32, 
| 23, 34, 
| 23, 35, 
| 23, 37, 
| 23, 39, 
| 23, 43, 
| 23, 44, 
| 23, 45, 
| 23, 48, 
| 23, 50, 
| 24, 25, 
| 24, 27, 
| 24, 28, 
| 24, 29, 
| 24, 32, 
| 24, 33, 
| 24, 35, 
| 24, 37, 
| 24, 38, 
| 24, 39, 
| 24, 41, 
| 24, 43, 
| 24, 46, 
| 24, 47, 
| 24, 48, 
| 24, 49, 
| 24, 50, 
| 25, 27, 
| 25, 29, 
| 25, 30, 
| 25, 31, 
| 25, 34, 
| 25, 40, 
| 25, 43, 
| 25, 45, 
| 25, 47, 
| 26, 27, 
| 26, 30, 
| 26, 31, 
| 26, 32, 
| 26, 33, 
| 26, 35, 
| 26, 37, 
| 26, 38, 
| 26, 42, 
| 26, 43, 
| 26, 44, 
| 26, 46, 
| 26, 47, 
| 27, 29, 
| 27, 32, 
| 27, 33, 
| 27, 34, 
| 27, 35, 
| 27, 36, 
| 27, 37, 
| 27, 38, 
| 27, 40, 
| 27, 42, 
| 27, 44, 
| 27, 45, 
| 27, 47, 
| 27, 48, 
| 27, 50, 
| 28, 29, 
| 28, 30, 
| 28, 33, 
| 28, 34, 
| 28, 36, 
| 28, 37, 
| 28, 38, 
| 28, 39, 
| 28, 43, 
| 28, 44, 
| 28, 46, 
| 28, 47, 
| 28, 49, 
| 29, 30, 
| 29, 32, 
| 29, 33, 
| 29, 35, 
| 29, 36, 
| 29, 39, 
| 29, 41, 
| 29, 42, 
| 29, 43, 
| 29, 44, 
| 29, 48, 
| 29, 50, 
| 30, 33, 
| 30, 34, 
| 30, 35, 
| 30, 37, 
| 30, 38, 
| 30, 39, 
| 30, 40, 
| 30, 41, 
| 30, 43, 
| 30, 44, 
| 30, 47, 
| 30, 48, 
| 31, 33, 
| 31, 34, 
| 31, 36, 
| 31, 38, 
| 31, 39, 
| 31, 40, 
| 31, 41, 
| 31, 44, 
| 31, 45, 
| 31, 47, 
| 32, 34, 
| 32, 35, 
| 32, 37, 
| 32, 38, 
| 32, 44, 
| 32, 46, 
| 32, 48, 
| 32, 49, 
| 32, 50, 
| 33, 34, 
| 33, 35, 
| 33, 36, 
| 33, 38, 
| 33, 39, 
| 33, 41, 
| 33, 42, 
| 33, 43, 
| 33, 48, 
| 33, 50, 
| 34, 36, 
| 34, 38, 
| 34, 39, 
| 34, 40, 
| 34, 41, 
| 34, 42, 
| 34, 44, 
| 34, 45, 
| 34, 47, 
| 34, 48, 
| 34, 49, 
| 34, 50, 
| 35, 37, 
| 35, 39, 
| 35, 41, 
| 35, 42, 
| 35, 46, 
| 35, 47, 
| 35, 49, 
| 35, 50, 
| 36, 38, 
| 36, 40, 
| 36, 43, 
| 36, 44, 
| 36, 45, 
| 37, 38, 
| 37, 39, 
| 37, 40, 
| 37, 42, 
| 37, 43, 
| 37, 44, 
| 37, 45, 
| 37, 50, 
| 38, 40, 
| 38, 42, 
| 38, 43, 
| 38, 45, 
| 38, 46, 
| 38, 48, 
| 38, 49, 
| 38, 50, 
| 39, 40, 
| 39, 42, 
| 39, 43, 
| 39, 46, 
| 39, 47, 
| 39, 48, 
| 39, 50, 
| 40, 41, 
| 40, 42, 
| 40, 44, 
| 40, 45, 
| 40, 46, 
| 40, 47, 
| 41, 42, 
| 41, 45, 
| 41, 48, 
| 41, 50, 
| 42, 44, 
| 42, 47, 
| 42, 48, 
| 42, 50, 
| 43, 45, 
| 43, 48, 
| 43, 49, 
| 43, 50, 
| 44, 45, 
| 44, 47, 
| 44, 48, 
| 45, 47, 
| 45, 49, 
| 45, 50, 
| 46, 47, 
| 46, 49, 
| 46, 50, 
| 47, 48, 
| 47, 50, 
| 48, 50, 
| 49, 50, 
|]; 
